
Gurobi 10.0.3 (linux64, gurobi_cl) logging started Thu Nov  2 11:34:05 2023

Set parameter Username
Set parameter TimeLimit to value 3600
Set parameter LogFile to value "RCPSP_362.log"
Set parameter Threads to value 32
Academic license - for non-commercial use only - expires 2024-10-30
Using license file /home/jrivera6/gurobi-licenses/v1003/compute-0-34/gurobi.lic

Gurobi Optimizer version 10.0.3 build v10.0.3rc0 (linux64)
Copyright (c) 2023, Gurobi Optimization, LLC

Read MPS format model from file RCPSP_362.mps
Reading time = 0.01 seconds
RCPSP_362: 5349 rows, 2080 columns, 17064 nonzeros

CPU model: Intel(R) Xeon(R) Gold 6130 CPU @ 2.10GHz, instruction set [SSE2|AVX|AVX2|AVX512]
Thread count: 32 physical cores, 32 logical processors, using up to 32 threads

Optimize a model with 5349 rows, 2080 columns and 17064 nonzeros
Model fingerprint: 0x735faf02
Variable types: 32 continuous, 2048 integer (2048 binary)
Coefficient statistics:
  Matrix range     [1e+00, 2e+02]
  Objective range  [1e+00, 1e+00]
  Bounds range     [1e+00, 1e+00]
  RHS range        [1e+00, 2e+02]
Presolve removed 3455 rows and 1363 columns
Presolve time: 0.22s
Presolved: 1894 rows, 717 columns, 5875 nonzeros
Variable types: 31 continuous, 686 integer (686 binary)

Root relaxation: objective 5.700000e+01, 281 iterations, 0.00 seconds (0.00 work units)

    Nodes    |    Current Node    |     Objective Bounds      |     Work
 Expl Unexpl |  Obj  Depth IntInf | Incumbent    BestBd   Gap | It/Node Time

     0     0   57.00000    0    6          -   57.00000      -     -    0s
H    0     0                      71.0000000   57.00000  19.7%     -    0s
     0     0   57.00000    0   47   71.00000   57.00000  19.7%     -    0s
     0     0   57.00000    0   45   71.00000   57.00000  19.7%     -    0s
H    0     0                      69.0000000   57.00000  17.4%     -    0s
     0     0   57.12484    0   17   69.00000   57.12484  17.2%     -    0s
     0     0   57.35273    0   16   69.00000   57.35273  16.9%     -    0s
     0     0   69.00000    0   16   69.00000   69.00000  0.00%     -    1s

Cutting planes:
  Gomory: 4
  Implied bound: 9
  Clique: 3
  MIR: 5
  Relax-and-lift: 2

Explored 1 nodes (2925 simplex iterations) in 1.14 seconds (0.29 work units)
Thread count was 32 (of 32 available processors)

Solution count 2: 69 71 

Optimal solution found (tolerance 1.00e-04)
Best objective 6.900000000000e+01, best bound 6.900000000000e+01, gap 0.0000%

Wrote result file 'RCPSP_362.sol'

